\ Model indp_copy
\ LP format - for model browsing. Use MPS format to capture full model detail.
Minimize
 
Subject To
 Interdependency_constraint_for_node_(0,_3),0: w_(9,_2),0 - w_(0,_3),0
   >= 0
Bounds
 w_(9,_2),0 = 0
 w_(0,_3),0 = 1
Binaries
 w_(9,_2),0 w_(0,_3),0
End
